(declare-rel fail ())
(declare-rel inv2 (Int Int Int Int Int Int Int))
(declare-var A Int)
(declare-var B Int)
(declare-var C Int)
(declare-var D Int)
(declare-var E Int)
(declare-var F Int)
(declare-var G Int)
(declare-var H Int)
(declare-var I Int)
(declare-var J Int)
(declare-var K Int)
(rule (=> (and (> I K) (= G 0) (= E 0) (= C (* C A)) (= 1 A)) (inv2 I K G E C A A)))
(rule (let ((a!1 (and (inv2 I K G E C A A)
                (= D (+ I A))
                (= F (+ K 2))
                (= J (ite (< I K) (+ G A) G))
                (= H (ite (< I K) E (+ E A))))))
  (=> a!1 (inv2 D F J H C A A))))
(rule (=> (and (inv2 I K G E C A A) (> G C) (not (> E 0))) fail))
(query fail)

